RT is False
Default write of storage_offers_DA.csv just to have a file (but constraint should be inactive)
Reading model...
...model read.
creating competitive generators file...
...competitive generators recorded.
Loading data...
.. day-ahead data read.
Compiling instance...
...instance created.
Creating Offer Mitigation (model will solve as dispatch if TRUE)...
NOTE: storage offers will not be mitigated
...storage offer mitigation file created
Converting model to MPEC...
...converted
NOTE: initial MIP solve with only storage competitive to get feasible solution
Solving...

Welcome to IBM(R) ILOG(R) CPLEX(R) Interactive Optimizer 12.9.0.0
  with Simplex, Mixed Integer & Barrier Optimizers
5725-A06 5725-A29 5724-Y48 5724-Y49 5724-Y54 5724-Y55 5655-Y21
Copyright IBM Corp. 1988, 2019.  All Rights Reserved.

Type 'help' for a list of available commands.
Type 'help' followed by a command name for more
information on commands.

CPLEX> Logfile 'cplex.log' closed.
Logfile 'C:\Users\Luke\Desktop\competitiveMPEC_12.6\logs\tmpv78bj4qo.cplex.log' open.
CPLEX> New value for parallel optimization mode: -1
CPLEX> New value for mixed integer optimality gap tolerance: 0.01
CPLEX> New value for integrality tolerance: 1e-09
CPLEX> New value for feasibility tolerance: 0.01
CPLEX> New value for deterministic time limit in ticks: 175000
CPLEX> Problem 'C:\Users\Luke\Desktop\competitiveMPEC_12.6\logs\tmp9w1rz1qm.pyomo.lp' read.
Read time = 0.19 sec. (13.79 ticks)
CPLEX> Problem name         : C:\Users\Luke\Desktop\competitiveMPEC_12.6\logs\tmp9w1rz1qm.pyomo.lp
Objective sense      : Maximize
Variables            :   53321  [Nneg: 1,  Box: 21806,  Free: 4416,
                                 Binary: 27098]
Objective nonzeros   :    8979
Linear constraints   :  122188  [Less: 41007,  Greater: 58612,  Equal: 22569]
  Nonzeros           :  288576
  RHS nonzeros       :   67005

Variables            : Min LB: -5000.000        Max UB: 1000000.       
Objective nonzeros   : Min   : 0.2000000        Max   : 841.3000       
Linear constraints   :
  Nonzeros           : Min   : 0.2000000        Max   : 1000000.       
  RHS nonzeros       : Min   : 0.2000000        Max   : 1000000.       
CPLEX> CPXPARAM_Parallel                                -1
CPXPARAM_Simplex_Tolerances_Feasibility          0.01
CPXPARAM_DetTimeLimit                            175000
CPXPARAM_MIP_Tolerances_MIPGap                   0.01
CPXPARAM_MIP_Tolerances_Integrality              1.0000000000000001e-09
Tried aggregator 3 times.
MIP Presolve eliminated 88038 rows and 18880 columns.
MIP Presolve added 3377 rows and 0 columns.
MIP Presolve modified 24614 coefficients.
Aggregator did 12887 substitutions.
Reduced MIP has 24640 rows, 20998 columns, and 68992 nonzeros.
Reduced MIP has 8302 binaries, 0 generals, 0 SOSs, and 0 indicators.
Presolve time = 0.22 sec. (171.79 ticks)
Probing fixed 429 vars, tightened 2891 bounds.
Probing time = 1.42 sec. (893.99 ticks)
Tried aggregator 2 times.
MIP Presolve eliminated 959 rows and 860 columns.
MIP Presolve modified 2187 coefficients.
Aggregator did 57 substitutions.
Reduced MIP has 23624 rows, 20081 columns, and 66033 nonzeros.
Reduced MIP has 7873 binaries, 0 generals, 0 SOSs, and 0 indicators.
Presolve time = 0.11 sec. (70.57 ticks)
Probing time = 0.03 sec. (15.48 ticks)
Clique table members: 6267.
MIP emphasis: balance optimality and feasibility.
MIP search method: dynamic search.
Parallel mode: opportunistic, using up to 24 threads.
Root relaxation solution time = 0.30 sec. (274.20 ticks)

        Nodes                                         Cuts/
   Node  Left     Objective  IInf  Best Integer    Best Bound    ItCnt     Gap

      0     0   110415.4780  1681                 110415.4780     6123         
      0     0   107853.2641   594                   Cuts: 617     6440         
      0     0   107449.3245   542                   Cuts: 215     6537         
      0     0   107422.2192   531                    Cuts: 90     6572         
      0     0   107378.0593   521                    Cuts: 53     6594         
      0     0   107378.0593   507                    Cuts: 63     6608         
      0     0   107378.0593   499                    Cuts: 37     6616         
      0     0   107378.0593   491                    Cuts: 36     6624         
      0     0   107378.0593   483                    Cuts: 37     6632         
      0     0   107378.0593   475                    Cuts: 35     6640         
      0     0   107378.0593   470                    Cuts: 34     6645         
      0     2   107378.0593   470                    Cuts: 27     6645         
Elapsed time = 10.28 sec. (6163.24 ticks, tree = 0.02 MB, solutions = 0)
    325    43    93129.8743   388                 104935.0138     7260         
    697   258    89988.6747   369                 104935.0138     9879         
   1138   664    98919.5072   383                 104935.0138    17001         
   1813   952    91021.2282   338                 104935.0138    18035         
   2867  1708   100462.7657   357                 104935.0138    19259         
   3700  2379    89899.6584   312                 104935.0138    19295         
   4442  3614    89899.6584   292                 104935.0138    19535         
   5206  3730    94609.2063   313                 104935.0138    19632         
   6280  4962    92445.6854   316                 104935.0138    20563         
*  7927  5317      integral     0    91021.2282   104935.0138    20598   15.29%
   9626  5460    98425.0876   294    98221.2479   104935.0138    21183    6.84%
Elapsed time = 18.41 sec. (9266.46 ticks, tree = 44.85 MB, solutions = 8)
*  9821  3406      integral     0    98425.0876   104935.0138    21581    6.61%
   9834  2716        cutoff          98425.0876   104645.0942    31311    6.32%
  10562   132   100503.3114    83    98425.0876   103874.9142    32610    5.54%
* 12103   752      integral     0    99442.8743   103720.5746    37606    4.30%
* 12299   832      integral     0    99593.9434   103720.5746    38772    4.14%
  12363   915    99710.8890    39    99593.9434   103720.5746    40209    4.14%
  12861  1396        cutoff          99593.9434   103680.5192    47343    4.10%
* 13563  1771      integral     0   100217.4928   103680.5192    49808    3.46%
  15018  1829   101792.5994    62   100217.4928   103457.5315    54297    3.23%
  17557  3137   101627.5847    84   100400.2633   103192.6454    67691    2.78%
  19323  4000   101829.9483    80   100400.2633   102861.5149    75663    2.45%
  20323  5092        cutoff         101198.3626   102774.6127    85978    1.56%
  22533  3176   101789.7287    71   101198.3626   102755.4690    90154    1.54%
Elapsed time = 49.06 sec. (21507.43 ticks, tree = 32.39 MB, solutions = 27)
  24058  3716        cutoff         101198.3626   102521.5846   100536    1.31%
  24177  4042   101198.5668    16   101198.3626   102521.5846   105436    1.31%
  24189  4042        cutoff         101198.3626   102521.5846   105447    1.31%
  24204  4043        cutoff         101198.3626   102521.5846   105450    1.31%

GUB cover cuts applied:  1
Clique cuts applied:  7
Cover cuts applied:  19
Implied bound cuts applied:  36
Flow cuts applied:  383
Mixed integer rounding cuts applied:  39
Zero-half cuts applied:  1
Gomory fractional cuts applied:  92

Root node processing (before b&c):
  Real time             =    9.69 sec. (6130.83 ticks)
Parallel b&c, 24 threads:
  Real time             =   39.63 sec. (20668.16 ticks)
  Sync time (average)   =    1.82 sec.
  Wait time (average)   =    0.08 sec.
                          ------------
Total (root+branch&cut) =   49.31 sec. (26798.99 ticks)

Solution pool: 27 solutions saved.

MIP - Integer optimal, tolerance (0.01/1e-06):  Objective =  1.0119836259e+05
Current MIP best bound =  1.0221016112e+05 (gap = 1011.8, 1.00%)
Solution time =   49.33 sec.  Iterations = 109418  Nodes = 24222 (4315)
Deterministic time = 26799.14 ticks  (543.28 ticks/sec)

CPLEX> Incumbent solution written to file 'C:\Users\Luke\Desktop\competitiveMPEC_12.6\logs\tmpo0a5s__s.cplex.sol'.
CPLEX> NOTE: no warmstart specified for MIP iteration, default behavior is true
NOTE: resolving with all competitive generators using storage-only solution to warmstart
Solving...

Welcome to IBM(R) ILOG(R) CPLEX(R) Interactive Optimizer 12.9.0.0
  with Simplex, Mixed Integer & Barrier Optimizers
5725-A06 5725-A29 5724-Y48 5724-Y49 5724-Y54 5724-Y55 5655-Y21
Copyright IBM Corp. 1988, 2019.  All Rights Reserved.

Type 'help' for a list of available commands.
Type 'help' followed by a command name for more
information on commands.

CPLEX> Logfile 'cplex.log' closed.
Logfile 'C:\Users\Luke\Desktop\competitiveMPEC_12.6\logs\tmpxzj3j1vy.cplex.log' open.
CPLEX> New value for parallel optimization mode: -1
CPLEX> New value for mixed integer optimality gap tolerance: 0.01
CPLEX> New value for integrality tolerance: 1e-09
CPLEX> New value for feasibility tolerance: 0.01
CPLEX> New value for deterministic time limit in ticks: 175000
CPLEX> Problem 'C:\Users\Luke\Desktop\competitiveMPEC_12.6\logs\tmpgtt0yli7.pyomo.lp' read.
Read time = 0.19 sec. (13.81 ticks)
CPLEX> MIP start file 'C:\Users\Luke\Desktop\competitiveMPEC_12.6\logs\tmpf0op0u8i.cplex.mst' read.
CPLEX> Problem name         : C:\Users\Luke\Desktop\competitiveMPEC_12.6\logs\tmpgtt0yli7.pyomo.lp
Objective sense      : Maximize
Variables            :   54041  [Nneg: 1,  Box: 22526,  Free: 4416,
                                 Binary: 27098]
Objective nonzeros   :    9675
Linear constraints   :  122188  [Less: 41007,  Greater: 58612,  Equal: 22569]
  Nonzeros           :  288576
  RHS nonzeros       :   67005

Variables            : Min LB: -5000.000        Max UB: 1000000.       
Objective nonzeros   : Min   : 0.2000000        Max   : 793.7000       
Linear constraints   :
  Nonzeros           : Min   : 0.2000000        Max   : 1000000.       
  RHS nonzeros       : Min   : 0.2000000        Max   : 1000000.       
CPLEX> CPXPARAM_Parallel                                -1
CPXPARAM_Simplex_Tolerances_Feasibility          0.01
CPXPARAM_DetTimeLimit                            175000
CPXPARAM_MIP_Tolerances_MIPGap                   0.01
CPXPARAM_MIP_Tolerances_Integrality              1.0000000000000001e-09
Warning:  No solution found from 1 MIP starts.
Retaining values of one MIP start for possible repair.
Tried aggregator 3 times.
MIP Presolve eliminated 88038 rows and 19600 columns.
MIP Presolve added 3377 rows and 0 columns.
MIP Presolve modified 24614 coefficients.
Aggregator did 12887 substitutions.
Reduced MIP has 24640 rows, 20998 columns, and 68992 nonzeros.
Reduced MIP has 8302 binaries, 0 generals, 0 SOSs, and 0 indicators.
Presolve time = 0.23 sec. (172.15 ticks)
Probing fixed 429 vars, tightened 2891 bounds.
Probing time = 1.36 sec. (893.99 ticks)
Tried aggregator 2 times.
MIP Presolve eliminated 959 rows and 860 columns.
MIP Presolve modified 2187 coefficients.
Aggregator did 57 substitutions.
Reduced MIP has 23624 rows, 20081 columns, and 66033 nonzeros.
Reduced MIP has 7873 binaries, 0 generals, 0 SOSs, and 0 indicators.
Presolve time = 0.09 sec. (70.57 ticks)
Probing time = 0.03 sec. (15.48 ticks)
Clique table members: 6267.
MIP emphasis: balance optimality and feasibility.
MIP search method: dynamic search.
Parallel mode: opportunistic, using up to 24 threads.
Root relaxation solution time = 0.33 sec. (286.25 ticks)

        Nodes                                         Cuts/
   Node  Left     Objective  IInf  Best Integer    Best Bound    ItCnt     Gap

      0     0   110408.3649  1685                 110408.3649     6213         
      0     0   107829.5384   602                   Cuts: 586     6500         
      0     0   107510.9437   541                   Cuts: 217     6601         
      0     0   107500.2791   534                    Cuts: 97     6646         
      0     0   107447.8699   515                    Cuts: 46     6676         
      0     0   107447.8699   503                    Cuts: 58     6700         
      0     0   107447.8699   494                    Cuts: 36     6718         
      0     0   107447.8699   486                    Cuts: 25     6726         
      0     0   107447.8699   478                    Cuts: 26     6734         
      0     0   107447.8699   470                    Cuts: 24     6742         
      0     0   107447.8699   465                    Cuts: 23     6747         
Repair heuristic found nothing.
      0     2   107447.8699   465                    Cuts: 26     6747         
Elapsed time = 9.20 sec. (5400.24 ticks, tree = 0.02 MB, solutions = 0)
    303    62    98510.4185   448                 105733.6906     7917         
    583   200   101038.7211   386                 105733.6906    10960         
    987   495    99489.5965   379                 105733.6906    17265         
   1515   628    95164.1965   384                 105733.6906    20973         
   2097  1006    97556.2172   388                 105733.6906    24667         
   2790  1517    84354.2906   330                 105733.6906    26467         
   3440  1837    98887.6120   338                 105733.6906    26666         
   4115  2750    95730.2241   341                 105733.6906    27540         
   5065  3015    99333.7056   343                 105733.6906    28542         
*  8299+ 6784                        87997.2012   105733.6906            20.16%
Elapsed time = 17.19 sec. (8308.25 ticks, tree = 64.57 MB, solutions = 1)
* 10020  7703      integral     0    97463.9251   105733.6906    30584    8.48%
* 10045  7673      integral     0    98887.6120   105733.6906    30494    6.92%
* 10072  7663      integral     0   100166.5745   105733.6906    30513    5.56%
  10090  2258        cutoff         100166.5745   105011.8451    41073    4.84%
  11284    92   100670.0446    81   100166.5745   104368.4643    43667    4.19%
  12318   225   100677.7979    69   100166.5745   104051.8248    47847    3.88%
  12735  1485   100203.9661    35   100166.5745   104051.8248    70577    3.88%
  13969  1954   101689.8680    95   100166.5745   104037.2153    83132    3.86%
  15667  2446   101087.4420    65   100166.5745   103077.7944    95301    2.91%
  17235  3245   100684.1274    80   100166.5745   102935.2836   113169    2.76%
  18978  3649   101527.3424   106   100166.5745   102688.4158   121183    2.52%
  20586  4617   101454.3544    98   100166.5745   102285.9738   144863    2.12%
Elapsed time = 55.74 sec. (24141.17 ticks, tree = 140.56 MB, solutions = 7)
  22218  5721   100518.7011   104   100166.5745   102126.0210   187267    1.96%
  23846  6016   100955.4151   103   100166.5745   101952.7239   204826    1.78%
  25494  6644   101434.6771   106   100166.5745   101871.8421   242102    1.70%
  27183  6918        cutoff         100166.5745   101659.5614   262660    1.49%
  28443  7193   100728.4186    67   100166.5745   101554.9728   276761    1.39%
  29005  7403   100426.7989    85   100166.5745   101522.3904   294758    1.35%
  29757  7450   101193.7469    65   100166.5745   101488.8315   296720    1.32%
  31471  7470   100567.4329    88   100166.5745   101340.9250   298692    1.17%
  32815  7836   100891.5728    75   100166.5745   101340.9250   315879    1.17%

GUB cover cuts applied:  2
Clique cuts applied:  7
Cover cuts applied:  31
Implied bound cuts applied:  197
Flow cuts applied:  1000
Mixed integer rounding cuts applied:  512
Gomory fractional cuts applied:  150

Root node processing (before b&c):
  Real time             =    8.64 sec. (5358.28 ticks)
Parallel b&c, 24 threads:
  Real time             =   73.06 sec. (28006.13 ticks)
  Sync time (average)   =    2.13 sec.
  Wait time (average)   =    0.09 sec.
                          ------------
Total (root+branch&cut) =   81.70 sec. (33364.42 ticks)

Solution pool: 7 solutions saved.

MIP - Integer optimal, tolerance (0.01/1e-06):  Objective =  1.0016657447e+05
Current MIP best bound =  1.0116822703e+05 (gap = 1001.65, 1.00%)
Solution time =   81.70 sec.  Iterations = 344633  Nodes = 32987 (8305)
Deterministic time = 33364.57 ticks  (408.36 ticks/sec)

CPLEX> Incumbent solution written to file 'C:\Users\Luke\Desktop\competitiveMPEC_12.6\logs\tmphpmztn0z.cplex.sol'.
CPLEX> Exporting results... 
